/* phase de tests sur le carré de Garam suivant
|-----------|   |-----------|
| _ + 0 = _ |   | _ - 1 = _ |
| + |---| x |   | x |---| x |
| _ |   | _ |   | 9 |   | _ |
| = |   | = |---| = |   | = |
| _ |---| _ - _ = _ |---| 1 |
| _ - _ = _ |---| _ x _ = _ |
|---| + |---|   |---| - |---|
    | 2 |           | 6 |
|---| = |---|   |---| = |---|
| _ + _ = _ |   | _ - _ = _ |
| x |---| x |   | x |---| x |
| 3 |   | _ |   | 8 |   | _ |
| = |   | = |---| = |   | = |
| _ |---| _ + 6 = _ |---| 3 |
| _ x 3 = _ |---| _ x _ = _ |
|-----------|   |-----------|

*/

tabOp=[add,sou,add,mul,mul,mul,sou,sou,mul,add,sou,add,sou,mul,mul,mul,mul,add,mul,mul];
a=[_,0,_];
f=[_,1,_];
g=[_,9,_,_];
h=[_,_,1,_];
j=[_,2,_];
k=[_,6,_];
m=[_,3,_,_];
o=[_,3,_];
p=[_,6,_];
r=[_,8,_,_];
s=[_,_,3,_];